; PUSH 0x03 PUSH 0x05 DUP2 LT ISZERO ISZERO => PUSH 0x03 PUSH 0x01
(set-option :produce-proofs true)
; 
(set-info :status unknown)
(declare-fun storage_t (Int (_ BitVec 256)) (_ BitVec 256))
(declare-fun storage_s (Int (_ BitVec 256)) (_ BitVec 256))
(declare-fun exc_halt_t (Int) Bool)
(declare-fun exc_halt_s (Int) Bool)
(declare-fun sc_t (Int) (_ BitVec 6))
(declare-fun stack_t (Int (_ BitVec 6)) (_ BitVec 256))
(declare-fun stack_s (Int (_ BitVec 6)) (_ BitVec 256))
(declare-fun sc_s (Int) (_ BitVec 6))
(declare-fun used_gas_t (Int) Int)
(declare-fun used_gas_s (Int) Int)
(assert
 (let (($x3810 (forall ((w (_ BitVec 256)) )(let ((?x4834 (storage_t 2 w)))
 (let ((?x5005 (storage_s 6 w)))
 (= ?x5005 ?x4834))))
 ))
 (let (($x3470 (exc_halt_t 2)))
 (let (($x772 (exc_halt_s 6)))
 (let (($x7828 (= $x772 $x3470)))
 (let (($x5924 (forall ((n (_ BitVec 6)) )(let ((?x6158 (sc_t 2)))
 (let (($x5803 (bvsle ?x6158 n)))
 (let ((?x8859 (stack_t 2 n)))
 (let ((?x3438 (stack_s 6 n)))
 (let (($x879 (= ?x3438 ?x8859)))
 (or $x879 $x5803)))))))
 ))
 (let ((?x6158 (sc_t 2)))
 (let ((?x926 (sc_s 6)))
 (let (($x8920 (= ?x926 ?x6158)))
 (let ((?x7568 (used_gas_t 0)))
 (let ((?x3122 (used_gas_s 0)))
 (let (($x1319 (= ?x3122 ?x7568)))
 (let (($x11462 (forall ((w (_ BitVec 256)) )(let ((?x10536 (storage_t 0 w)))
 (let ((?x7340 (storage_s 0 w)))
 (= ?x7340 ?x10536))))
 ))
 (let (($x56 (exc_halt_t 0)))
 (let (($x57 (exc_halt_s 0)))
 (let (($x58 (= $x57 $x56)))
 (let (($x4188 (forall ((n (_ BitVec 6)) )(let ((?x63 (sc_t 0)))
 (let (($x7673 (bvsle ?x63 n)))
 (let ((?x1527 (stack_t 0 n)))
 (let ((?x7955 (stack_s 0 n)))
 (let (($x967 (= ?x7955 ?x1527)))
 (or $x967 $x7673)))))))
 ))
 (let ((?x63 (sc_t 0)))
 (let ((?x72 (sc_s 0)))
 (let (($x73 (= ?x72 ?x63)))
 (let (($x4195 (not (= ((_ extract 6 6) (bvadd (_ bv1 7) (concat (_ bv0 1) (sc_t 1)))) (_ bv0 1)))))
 (let (($x8377 (exc_halt_t 1)))
 (let (($x10932 (= $x3470 (or $x8377 $x4195))))
 (let (($x9341 (forall ((w (_ BitVec 256)) )(let ((?x7937 (storage_t 1 w)))
 (let ((?x4834 (storage_t 2 w)))
 (= ?x4834 ?x7937))))
 ))
 (let (($x11024 (forall ((n (_ BitVec 6)) )(let ((?x7154 (sc_t 1)))
 (let (($x3413 (bvsle ?x7154 n)))
 (or $x3413 (= (stack_t 2 n) (stack_t 1 n))))))
 ))
 (let (($x2783 (= ?x6158 (bvadd (_ bv1 6) (sc_t 1)))))
 (let (($x4983 (= $x8377 (or $x56 (not (= ((_ extract 6 6) (bvadd (_ bv1 7) (concat (_ bv0 1) ?x63))) (_ bv0 1)))))))
 (let (($x4200 (forall ((w (_ BitVec 256)) )(let ((?x10536 (storage_t 0 w)))
 (let ((?x7937 (storage_t 1 w)))
 (= ?x7937 ?x10536))))
 ))
 (let (($x9607 (forall ((n (_ BitVec 6)) )(let ((?x63 (sc_t 0)))
 (let (($x7673 (bvsle ?x63 n)))
 (or $x7673 (= (stack_t 1 n) (stack_t 0 n))))))
 ))
 (let ((?x7154 (sc_t 1)))
 (let (($x3228 (= ?x7154 (bvadd (_ bv1 6) ?x63))))
 (let (($x2536 (= $x772 (or (exc_halt_s 5) (not (bvsle (_ bv0 6) (bvadd (_ bv63 6) (sc_s 5))))))))
 (let (($x9817 (forall ((w (_ BitVec 256)) )(let ((?x183 (storage_s 5 w)))
 (let ((?x5005 (storage_s 6 w)))
 (= ?x5005 ?x183))))
 ))
 (let (($x2633 (forall ((n (_ BitVec 6)) )(let ((?x4319 (sc_s 5)))
 (let ((?x5078 (bvadd (_ bv63 6) ?x4319)))
 (let (($x9605 (bvsle ?x5078 n)))
 (or (= (stack_s 6 n) (stack_s 5 n)) $x9605)))))
 ))
 (let (($x6779 (= (stack_s 6 (bvadd (_ bv63 6) ?x926)) (ite (= (stack_s 5 (bvadd (_ bv63 6) (sc_s 5))) (_ bv0 256)) (_ bv1 256) (_ bv0 256)))))
 (let (($x11317 (exc_halt_s 5)))
 (let (($x2650 (= $x11317 (or (exc_halt_s 4) (not (bvsle (_ bv0 6) (bvadd (_ bv63 6) (sc_s 4))))))))
 (let (($x2305 (forall ((w (_ BitVec 256)) )(let ((?x4000 (storage_s 4 w)))
 (let ((?x183 (storage_s 5 w)))
 (= ?x183 ?x4000))))
 ))
 (let (($x1433 (forall ((n (_ BitVec 6)) )(or (bvsle (bvadd (_ bv63 6) (sc_s 4)) n) (= (stack_s 5 n) (stack_s 4 n))))
 ))
 (let ((?x4305 (sc_s 4)))
 (let ((?x4319 (sc_s 5)))
 (let (($x9960 (= ?x4319 ?x4305)))
 (let ((?x5078 (bvadd (_ bv63 6) ?x4319)))
 (let ((?x922 (stack_s 5 ?x5078)))
 (let (($x7172 (exc_halt_s 4)))
 (let (($x8045 (= $x7172 (or (exc_halt_s 3) (not (bvsle (_ bv0 6) (bvadd (_ bv62 6) (sc_s 3))))))))
 (let (($x1087 (forall ((w (_ BitVec 256)) )(let ((?x9728 (storage_s 3 w)))
 (let ((?x4000 (storage_s 4 w)))
 (= ?x4000 ?x9728))))
 ))
 (let (($x62 (forall ((n (_ BitVec 6)) )(let ((?x275 (sc_s 3)))
 (let ((?x11384 (bvadd (_ bv62 6) ?x275)))
 (let (($x2042 (bvsle ?x11384 n)))
 (or $x2042 (= (stack_s 4 n) (stack_s 3 n)))))))
 ))
 (let ((?x275 (sc_s 3)))
 (let ((?x1344 (bvadd (_ bv63 6) ?x275)))
 (let ((?x36 (stack_s 3 ?x1344)))
 (let ((?x11664 (bvadd (_ bv63 6) ?x4305)))
 (let ((?x5872 (stack_s 4 ?x11664)))
 (let (($x6413 (= ?x5872 (ite (bvule (stack_s 3 (bvadd (_ bv62 6) ?x275)) ?x36) (_ bv0 256) (_ bv1 256)))))
 (let (($x11134 (not (= ((_ extract 6 6) (bvadd (_ bv1 7) (concat (_ bv0 1) (sc_s 2)))) (_ bv0 1)))))
 (let (($x8631 (not (bvsle (_ bv0 6) (bvadd (_ bv62 6) (sc_s 2))))))
 (let (($x247 (exc_halt_s 2)))
 (let (($x292 (exc_halt_s 3)))
 (let (($x1473 (forall ((w (_ BitVec 256)) )(let ((?x374 (storage_s 2 w)))
 (let ((?x9728 (storage_s 3 w)))
 (= ?x9728 ?x374))))
 ))
 (let (($x6028 (forall ((n (_ BitVec 6)) )(let ((?x218 (sc_s 2)))
 (let ((?x6941 (bvadd (_ bv62 6) ?x218)))
 (let (($x11374 (bvsle ?x6941 n)))
 (or (= (stack_s 3 n) (stack_s 2 n)) $x11374)))))
 ))
 (let (($x7369 (= ?x275 (bvadd (_ bv1 6) (sc_s 2)))))
 (let (($x10050 (= (stack_s 3 (bvadd (_ bv63 6) (sc_s 2))) (stack_s 2 (bvadd (_ bv63 6) (sc_s 2))))))
 (let ((?x218 (sc_s 2)))
 (let ((?x6941 (bvadd (_ bv62 6) ?x218)))
 (let ((?x8167 (stack_s 2 ?x6941)))
 (let (($x6759 (not (= ((_ extract 6 6) (bvadd (_ bv1 7) (concat (_ bv0 1) (sc_s 1)))) (_ bv0 1)))))
 (let (($x189 (exc_halt_s 1)))
 (let (($x1333 (= $x247 (or $x189 $x6759))))
 (let (($x4261 (forall ((w (_ BitVec 256)) )(let ((?x7431 (storage_s 1 w)))
 (let ((?x374 (storage_s 2 w)))
 (= ?x374 ?x7431))))
 ))
 (let (($x11732 (forall ((n (_ BitVec 6)) )(let ((?x154 (sc_s 1)))
 (let (($x9237 (bvsle ?x154 n)))
 (or $x9237 (= (stack_s 2 n) (stack_s 1 n))))))
 ))
 (let (($x6266 (= ?x218 (bvadd (_ bv1 6) (sc_s 1)))))
 (let (($x10804 (= $x189 (or $x57 (not (= ((_ extract 6 6) (bvadd (_ bv1 7) (concat (_ bv0 1) ?x72))) (_ bv0 1)))))))
 (let (($x11902 (forall ((w (_ BitVec 256)) )(let ((?x7340 (storage_s 0 w)))
 (let ((?x7431 (storage_s 1 w)))
 (= ?x7431 ?x7340))))
 ))
 (let (($x5563 (forall ((n (_ BitVec 6)) )(let ((?x72 (sc_s 0)))
 (let (($x3419 (bvsle ?x72 n)))
 (or $x3419 (= (stack_s 1 n) (stack_s 0 n))))))
 ))
 (let ((?x154 (sc_s 1)))
 (let (($x8655 (= ?x154 (bvadd (_ bv1 6) ?x72))))
 (let (($x1458 (forall ((w (_ BitVec 256)) )(let ((?x7340 (storage_s 0 w)))
 (= ?x7340 (_ bv0 256))))
 ))
 (let (($x11107 (= ?x3122 0)))
 (let (($x7303 (not $x57)))
 (let (($x8325 (= ?x72 (_ bv0 6))))
 (and $x8325 $x7303 $x11107 $x1458 (= (stack_s 1 ?x72) (_ bv3 256)) (= (used_gas_s 1) (+ 3 ?x3122)) $x8655 $x5563 $x11902 $x10804 (= (stack_s 2 ?x154) (_ bv5 256)) (= (used_gas_s 2) (+ 3 (used_gas_s 1))) $x6266 $x11732 $x4261 $x1333 (= ?x36 ?x8167) (= (stack_s 3 ?x6941) ?x8167) $x10050 (= (used_gas_s 3) (+ 3 (used_gas_s 2))) $x7369 $x6028 $x1473 (= $x292 (or $x247 $x8631 $x11134)) $x6413 (= (used_gas_s 4) (+ 3 (used_gas_s 3))) (= ?x4305 ?x1344) $x62 $x1087 $x8045 (= ?x922 (ite (= ?x5872 (_ bv0 256)) (_ bv1 256) (_ bv0 256))) (= (used_gas_s 5) (+ 3 (used_gas_s 4))) $x9960 $x1433 $x2305 $x2650 $x6779 (= (used_gas_s 6) (+ 3 (used_gas_s 5))) (= ?x926 ?x4319) $x2633 $x9817 $x2536 (= (stack_t 1 ?x63) (_ bv3 256)) (= (used_gas_t 1) (+ 3 ?x7568)) $x3228 $x9607 $x4200 $x4983 (= (stack_t 2 ?x7154) (_ bv1 256)) (= (used_gas_t 2) (+ 3 (used_gas_t 1))) $x2783 $x11024 $x9341 $x10932 $x73 $x4188 $x58 $x11462 $x1319 (not (and $x8920 $x5924 $x7828 $x3810)))))))))))))))))))))))))))))))))))))))))))))))))))))))))))))))))))))))))))))))))))
(check-sat)
(get-proof)
